NAME: berlin52-12-0
TYPE: TSP
COMMENT: min_cost = 4726.58
DIMENSION: 12
EDGE_WEIGHT_TYPE: EUC_2D
NODE_COORD_SECTION
1 560 365
2 95 260
3 830 610
4 1465 200
5 700 500
6 880 660
7 415 635
8 1340 725
9 945 685
10 1150 1160
11 1530 5
12 580 1175
EOF
